
Gurobi 11.0.3 (linux64) logging started Fri Nov 22 00:09:44 2024

Set parameter LogFile to value "/home/yihong/Coding/OR_SUC/SUC_results_bigM100000_thread4/case24_ieee_rts_theta0.5_epsilon0.05_gurobi_seed420000_num_gen100_N_WDR100_load_scaling_factor1_exact_T20quadra_cost.txt"
Set parameter TimeLimit to value 3600
Gurobi Optimizer version 11.0.3 build v11.0.3rc0 (linux64 - "Ubuntu 20.04.6 LTS")

CPU model: AMD EPYC 7532 32-Core Processor, instruction set [SSE2|AVX|AVX2]
Thread count: 64 physical cores, 128 logical processors, using up to 4 threads

Optimize a model with 47983 rows, 25001 columns and 1104482 nonzeros
Model fingerprint: 0x0c3e0525
Model has 2000 quadratic constraints
Variable types: 22901 continuous, 2100 integer (2100 binary)
Coefficient statistics:
  Matrix range     [3e-04, 1e+05]
  QMatrix range    [2e-03, 8e-03]
  QLMatrix range   [8e-02, 6e+01]
  Objective range  [1e+00, 1e+00]
  Bounds range     [1e+00, 1e+00]
  RHS range        [1e+00, 1e+05]
Presolve removed 39265 rows and 10640 columns
Presolve time: 0.33s
Presolved: 8718 rows, 14361 columns, 48224 nonzeros
Presolved model has 2000 quadratic constraint(s)
Variable types: 12274 continuous, 2087 integer (2087 binary)

Root relaxation: objective 4.238756e+04, 6861 iterations, 0.16 seconds (0.23 work units)

    Nodes    |    Current Node    |     Objective Bounds      |     Work
 Expl Unexpl |  Obj  Depth IntInf | Incumbent    BestBd   Gap | It/Node Time

     0     0 42387.5640    0   12          - 42387.5640      -     -    0s
     0     0 306909.314    0  638          - 306909.314      -     -    1s
     0     0 307359.154    0  615          - 307359.154      -     -    1s
     0     0 534771.652    0  556          - 534771.652      -     -    1s
     0     0 534801.456    0  402          - 534801.456      -     -    1s
     0     0 535065.778    0  301          - 535065.778      -     -    1s
     0     0 535071.168    0  301          - 535071.168      -     -    1s
     0     0 535071.168    0  301          - 535071.168      -     -    1s
     0     2 535071.168    0  301          - 535071.168      -     -    2s
H  399   450                    535377.22277 535081.906  0.06%  25.5    3s
*  399   450             152    535377.22277 535081.906  0.06%  25.5    3s

Cutting planes:
  Gomory: 4
  Implied bound: 254
  MIR: 83
  Flow cover: 92
  Relax-and-lift: 27
  PSD: 1

Explored 492 nodes (30582 simplex iterations) in 3.99 seconds (5.05 work units)
Thread count was 4 (of 128 available processors)

Solution count 2: 535377 535377 

Optimal solution found (tolerance 1.00e-03)
Warning: max constraint violation (3.3793e-07) exceeds tolerance
Best objective 5.353772227740e+05, best bound 5.350819057930e+05, gap 0.0552%
